scenarios/sols/small/micp_milp/027.sol
objective value:                     1.45524230721945
x(0,2,0)                                            1 	(obj:0)
x(1,4,0)                                            1 	(obj:0)
x(2,3,0)                                            1 	(obj:0)
x(3,11,0)                                           1 	(obj:0)
x(4,0,0)                                            1 	(obj:0)
x(11,1,0)                                           1 	(obj:0)
xc(0,9)                                             1 	(obj:0)
xc(1,3)                                             1 	(obj:0)
xc(2,0)                                             1 	(obj:0)
xc(3,1)                                             1 	(obj:0)
xc(4,11)                                            1 	(obj:0)
u(0,0)                               0.86836731144044 	(obj:0)
u(2,0)                               0.90479806202698 	(obj:0)
u(3,0)                               1.26309119305945 	(obj:0)
u(4,0)                              0.224823480054638 	(obj:0)
u(5,0)                               1.45524230721945 	(obj:0)
u(9,0)                               1.45524230721945 	(obj:0)
u(10,0)                              1.45524230721945 	(obj:0)
u(11,0)                              1.45524230721945 	(obj:0)
u(12,0)                              1.45524230721945 	(obj:0)
u(13,0)                              1.45524230721945 	(obj:0)
u(14,0)                              1.45524230721945 	(obj:0)
u(15,0)                              1.45524230721945 	(obj:0)
u(16,0)                              1.45524230721945 	(obj:0)
u(17,0)                              1.45524230721945 	(obj:0)
u(18,0)                              1.45524230721945 	(obj:0)
u(19,0)                              1.45524230721945 	(obj:0)
f(0,2,0)                                            1 	(obj:0)
f(0,9,0)                                            1 	(obj:0)
f(0,9,1)                                            1 	(obj:0)
f(0,9,2)                                            1 	(obj:0)
f(0,9,3)                                            1 	(obj:0)
f(0,9,4)                                            1 	(obj:0)
f(1,3,0)                                            1 	(obj:0)
f(1,3,3)                                            1 	(obj:0)
f(1,4,0)                                            1 	(obj:0)
f(1,4,1)                                            1 	(obj:0)
f(1,4,3)                                            1 	(obj:0)
f(1,4,4)                                            1 	(obj:0)
f(2,0,2)                                            1 	(obj:0)
f(2,3,0)                                            1 	(obj:0)
f(3,1,0)                                            1 	(obj:0)
f(3,1,3)                                            1 	(obj:0)
f(3,11,0)                                           1 	(obj:0)
f(3,11,3)                                           1 	(obj:0)
f(4,0,0)                                            1 	(obj:0)
f(4,0,1)                                            1 	(obj:0)
f(4,0,3)                                            1 	(obj:0)
f(4,0,4)                                            1 	(obj:0)
f(4,11,4)                                           1 	(obj:0)
f(11,1,0)                                           1 	(obj:0)
f(11,1,3)                                           1 	(obj:0)
f(11,1,4)                                           1 	(obj:0)
z_r(0,)                              1.45524230721945 	(obj:0)
z                                    1.45524230721945 	(obj:1)
