scenarios/sols/small/micp_milp/027.out
b'The following solver is parallelized by UG version 0.9.1 [GitHash: ]\n'
b'SCIP version 7.0.2 [precision: 8 byte] [memory: block] [mode: optimized] [LP solver: SoPlex 5.0.2] [GitHash: e9d280a398]\n'
b'Copyright (C) 2002-2020 Konrad-Zuse-Zentrum fuer Informationstechnik Berlin (ZIB)\n'
b'External codes: \n'
b'  Readline 7.0         GNU library for command line editing (gnu.org/s/readline)\n'
b'  SoPlex 5.0.2         Linear Programming Solver developed at Zuse Institute Berlin (soplex.zib.de) [GitHash: e24c304e]\n'
b'  CppAD 20180000.0     Algorithmic Differentiation of C++ algorithms developed by B. Bell (www.coin-or.org/CppAD)\n'
b'  ZLIB 1.2.11          General purpose compression library by J. Gailly and M. Adler (zlib.net)\n'
b'  GMP 6.1.2            GNU Multiple Precision Arithmetic Library developed by T. Granlund (gmplib.org)\n'
b'  ZIMPL 3.4.0          Zuse Institute Mathematical Programming Language developed by T. Koch (zimpl.zib.de)\n'
b'Default LC presolving (default).\n'
b'Original Problem   :\n'
b'  Problem name     : 027\n'
b'  Variables        : 4863 (800 binary, 0 integer, 0 implicit integer, 4063 continuous)\n'
b'  Constraints      : 13361\n'
b'  Objective sense  : minimize\n'
b'Presolved Problem  :\n'
b'  Variables        : 1199 (227 binary, 0 integer, 0 implicit integer, 972 continuous)\n'
b'  Constraints      : 1317\n'
b'Constraints        : Number\n'
b'  varbound         : 790 \n'
b'  knapsack         : 3 \n'
b'  setppc           : 58 \n'
b'  linear           : 466 \n'
b'** Instance transfer method used: 0\n'
b'** ParaScipInstance copy does not increase the number of variables. **\n'
b'LC is working with racing ramp-up and with rebuilding tree after racing.\n'
b'                               Nodes    Active                                            \n'
b'     Time          Nodes        Left   Solvers     Best Integer        Best Node       Gap     Best Node(S)    Gap(S)\n'
b'*       4            242         170         8           3.8621           0.0902         -\n'
b'*       4            242         170         8           1.7573           0.0902         -\n'
b'*       4            242         170         8           1.5772           0.0902         -\n'
b'*       5              2           1         8           1.5564           0.0976         -\n'
b'*       5              2           1         8           1.5187           0.0976         -\n'
b'        5              2           1         8           1.5187           0.0976         -\n'
b'*       6            412         228         8           1.4768           0.0976         -\n'
b'*       6            412         228         8           1.4761           0.0976         -\n'
b'Racing ramp-up finished after 8.3400 seconds. Selected strategy 7.\n'
b'*      10           1219         249         8           1.4552           0.1065         -           0.1065         -\n'
b'       10           1525         448         8           1.4552           0.1065         -           0.1065         -\n'
b'       15          17817        2563         8           1.4552           0.1098         -           0.1098         -\n'
b'       20          33686        3610         8           1.4552           0.1137         -           0.1137         -\n'
b'       25          48459        4739         8           1.4552           0.1137         -           0.1137         -\n'
b'       30          63085        5589         8           1.4552           0.1137         -           0.1137         -\n'
b'       35          81548        6688         8           1.4552           0.1137         -           0.1137         -\n'
b'       40         100740        7713         8           1.4552           0.1137         -           0.2844    411.65%\n'
b'       45         123124        8418         8           1.4552           0.1137         -           0.2844    411.65%\n'
b'       51         145667        8227         8           1.4552           0.1137         -           0.2183         -\n'
b'       56         168367        8353         8           1.4552           0.1137         -           0.3246    348.26%\n'
b'       61         193037        8212         8           1.4552           0.1137         -           0.3293    341.90%\n'
b'       66         211552        7699         8           1.4552           0.1649         -           0.2203         -\n'
b'       71         231255        8662         8           1.4552           0.1649         -           0.3508    314.82%\n'
b'       76         251872        8300         8           1.4552           0.2709    437.17%           0.2709    437.17%\n'
b'       81         271465        8576         8           1.4552           0.2709    437.17%           0.2709    437.17%\n'
b'       86         291227        9181         8           1.4552           0.3593    304.98%           0.3593    304.98%\n'
b'       91         313105        9163         8           1.4552           0.3794    283.53%           0.3794    283.53%\n'
b'       96         335554        8744         8           1.4552           0.3895    273.59%           0.3895    273.59%\n'
b'      101         352829        8990         8           1.4552           0.3952    268.19%           0.3952    268.19%\n'
b'      106         373957        9095         8           1.4552           0.3966    266.91%           0.3966    266.91%\n'
b'      111         393046        8939         8           1.4552           0.4130    252.35%           0.4130    252.35%\n'
b'      116         412703        8966         8           1.4552           0.4170    249.00%           0.4170    249.00%\n'
b'      121         433190        8770         8           1.4552           0.4216    245.13%           0.4216    245.13%\n'
b'      126         455251        7800         8           1.4552           0.4267    241.06%           0.4267    241.06%\n'
b'      132         477164        6633         8           1.4552           0.4360    233.77%           0.4360    233.77%\n'
b'      137         493206        6465         8           1.4552           0.4410    229.98%           0.4410    229.98%\n'
b'      142         508588        6853         8           1.4552           0.4445    227.39%           0.4445    227.39%\n'
b'      147         521427        7149         8           1.4552           0.4622    214.85%           0.4622    214.85%\n'
b'      152         535809        7894         8           1.4552           0.4654    212.66%           0.4654    212.66%\n'
b'      157         552971        8418         8           1.4552           0.4654    212.66%           0.4654    212.66%\n'
b'      162         566194        8924         8           1.4552           0.4812    202.43%           0.4812    202.43%\n'
b'      167         582713        9058         8           1.4552           0.4812    202.43%           0.4812    202.43%\n'
b'      173         598190        9005         8           1.4552           0.4812    202.43%           0.4812    202.43%\n'
b'      178         613796        8680         8           1.4552           0.4812    202.43%           0.4812    202.43%\n'
b'      183         628205        8188         8           1.4552           0.4899    197.04%           0.4900    196.97%\n'
b'      188         640610        7743         8           1.4552           0.4932    195.08%           0.4932    195.08%\n'
b'      193         655008        7066         8           1.4552           0.4973    192.62%           0.4973    192.62%\n'
b'      198         663866        6728         8           1.4552           0.5011    190.40%           0.5011    190.40%\n'
b'      203         674972        6048         8           1.4552           0.5147    182.72%           0.5147    182.72%\n'
b'      208         684872        5152         8           1.4552           0.5247    177.35%           0.5247    177.35%\n'
b'      213         693675        4745         8           1.4552           0.5247    177.35%           0.5247    177.35%\n'
b'      218         701474        4625         8           1.4552           0.5247    177.35%           0.5247    177.35%\n'
b'      223         708678        4036         8           1.4552           0.5394    169.78%           0.5394    169.78%\n'
b'      228         716170        3447         8           1.4552           0.5665    156.87%           0.5790    151.34%\n'
b'      233         724763        2854         8           1.4552           0.6344    129.37%           0.6344    129.37%\n'
b'      238         732821        2498         8           1.4552           0.6640    119.18%           0.6678    117.92%\n'
b'      243         741507        1926         8           1.4552           0.6974    108.67%           0.6974    108.67%\n'
b'      248         749520         972         8           1.4552           0.7842     85.57%           0.7883     84.60%\n'
b'      253         757885         103         8           1.4552           1.0289     41.43%           1.0289     41.43%\n'
b'      258         761535           0         0           1.4552           1.4552      0.00%\n'
b'SCIP Status        : problem is solved\n'
b'Total Time         : 257.54\n'
b'  solving          : 257.54\n'
b'  presolving       : 0.14 (included in solving)\n'
b'B&B Tree           :\n'
b'  nodes (total)    : 761535\n'
b'Solution           :\n'
b'  Solutions found  : 8\n'
b'  Primal Bound     : +1.45524230721945e+00\n'
b'  Dual Bound       : +1.45524230721945e+00\n'
b'Gap                : 0.00000 %\n'
